# Solution for model GasLib-40
# Objective value = 1.0786873625427219e+01
loadshed[innode_1] 0
loadshed[innode_2] 0
loadshed[innode_3] 0
loadshed[innode_4] 0
loadshed[innode_5] 0
loadshed[innode_6] 0
loadshed[innode_7] 0
loadshed[innode_8] 0
loadshed[source_1] -3.7820333101083592e-01
loadshed[source_2] 4.9735203755795987e-02
loadshed[source_3] 3.9670049281868613e-01
loadshed[sink_1] 0
loadshed[sink_2] 0
loadshed[sink_3] 0
loadshed[sink_4] 0
loadshed[sink_5] 0
loadshed[sink_6] 0
loadshed[sink_7] 0
loadshed[sink_8] 0
loadshed[sink_9] 0
loadshed[sink_10] 0
loadshed[sink_11] 0
loadshed[sink_12] 6.5957953378408474e-01
loadshed[sink_13] 0
loadshed[sink_14] 0
loadshed[sink_15] 0
loadshed[sink_16] 0
loadshed[sink_17] 0
loadshed[sink_18] 0
loadshed[sink_19] 0
loadshed[sink_20] 0
loadshed[sink_21] 0
loadshed[sink_22] 0
loadshed[sink_23] 0
loadshed[sink_24] 0
loadshed[sink_25] 0
loadshed[sink_26] 0
loadshed[sink_27] 0
loadshed[sink_28] 0
loadshed[sink_29] 0
flow[source_1,sink_3] 2.1788054743376165e+02
flow[innode_1,sink_16] 1.6354166666666970e+01
flow[innode_6,sink_13] 1.9103379993189677e+01
flow[sink_13,sink_14] 2.7492133265230105e+00
flow[sink_14,sink_10] -1.3604953340143657e+01
flow[sink_25,sink_26] 1.7137368088585788e+02
flow[sink_26,sink_9] 1.2163388691663218e+02
flow[sink_9,sink_18] 1.0527972024996551e+02
flow[sink_26,sink_4] 3.3385627302559044e+01
flow[sink_4,sink_20] -1.7164289061965324e+01
flow[sink_18,sink_6] 8.8925553583298836e+01
flow[sink_25,innode_8] -1.8517221410042529e+02
flow[sink_6,sink_7] 39.8630535832981
flow[sink_6,sink_22] 3.2708333333333641e+01
flow[sink_7,sink_24] 3.8275626374572788e+01
flow[sink_22,sink_1] 1.6354166666666970e+01
flow[sink_24,sink_21] 2.1921459707906116e+01
flow[sink_21,sink_12] 5.5672930412394486e+00
flow[sink_7,sink_5] -1.4766739457941057e+01
flow[sink_5,sink_17] -3.1120906124608041e+01
flow[sink_17,sink_4] -34.1957496978577
flow[sink_17,sink_8] -1.3279323093416792e+01
flow[sink_3,sink_23] 16.3541666666697
flow[sink_8,sink_20] -2.9633489760083460e+01
flow[sink_25,sink_20] 6.3151945488715342e+01
flow[sink_25,sink_15] -8.4810958934003637e+01
flow[sink_15,sink_29] -1.1751929226735456e+02
flow[sink_29,sink_28] 1.6354166666667879e+01
flow[sink_29,sink_2] 0
flow[sink_2,sink_15] -1.6354166666684250e+01
flow[sink_29,innode_7] -1.5022762560068961e+02
flow[innode_4,sink_19] 9.5375786673490339e+01
flow[sink_19,innode_3] 6.2667453340143965e+01
flow[innode_4,innode_5] 0
flow[sink_27,innode_5] 0
flow[sink_27,sink_19] -1.6354166666679703e+01
flow[sink_10,sink_11] 3.2708333333333641e+01
flow[sink_10,innode_2] 0
flow[sink_10,innode_3] -6.2667453340143965e+01
flow[innode_6,sink_25] -1.9103379993189677e+01
flow[sink_11,innode_1] 1.6354166666666970e+01
flow[sink_19,innode_2] 0
flow[source_3,innode_4] 9.5375786673490339e+01
flow[source_2,innode_7] 1.5022762560068961e+02
flow[sink_3,innode_8] 1.8517221410042529e+02
pressure[innode_1] 73.5224433718629
pressure[innode_2] 7.3674144679466451e+01
pressure[innode_3] 77.0105638838649
pressure[innode_4] 81.01325
pressure[innode_5] 7.6798203865823879e+01
pressure[innode_6] 7.3140883182678550e+01
pressure[innode_7] 81.01325
pressure[innode_8] 8.0284958563314930e+01
pressure[source_1] 81.01325
pressure[source_2] 81.01325
pressure[source_3] 81.01325
pressure[sink_1] 4.5506044696283567e+01
pressure[sink_2] 7.3498906225392219e+01
pressure[sink_3] 8.0284958563314930e+01
pressure[sink_4] 5.6826400418961065e+01
pressure[sink_5] 5.3201269064595287e+01
pressure[sink_6] 4.7607122306670938e+01
pressure[sink_7] 4.7059897600110730e+01
pressure[sink_8] 5.6020614981655775e+01
pressure[sink_9] 5.3791033419688240e+01
pressure[sink_10] 7.3674144679466451e+01
pressure[sink_11] 73.5224433718629
pressure[sink_12] 1.0132499999999998e+00
pressure[sink_13] 7.3035569441247475e+01
pressure[sink_14] 7.3030649489818458e+01
pressure[sink_15] 7.3552298975158664e+01
pressure[sink_16] 7.2500793537045226e+01
pressure[sink_17] 5.5519551622508104e+01
pressure[sink_18] 4.9981699353512731e+01
pressure[sink_19] 7.7149333862967381e+01
pressure[sink_20] 5.8085652474135188e+01
pressure[sink_21] 2.9943975632080120e+00
pressure[sink_22] 4.6569813838638574e+01
pressure[sink_23] 8.0120240551655144e+01
pressure[sink_24] 3.2371573620079319e+00
pressure[sink_25] 7.3140883182678550e+01
pressure[sink_26] 6.1071135480069188e+01
pressure[sink_27] 7.6798203865823879e+01
pressure[sink_28] 7.6699967257611519e+01
pressure[sink_29] 76.9952495312287
interdiction[source_1,sink_3] 0
interdiction[innode_1,sink_16] 0
interdiction[innode_6,sink_13] 0
interdiction[sink_13,sink_14] 0
interdiction[sink_14,sink_10] 0
interdiction[sink_25,sink_26] 0
interdiction[sink_26,sink_9] 0
interdiction[sink_9,sink_18] 0
interdiction[sink_26,sink_4] 0
interdiction[sink_4,sink_20] 0
interdiction[sink_18,sink_6] 0
interdiction[sink_25,innode_8] 0
interdiction[sink_6,sink_7] 0
interdiction[sink_6,sink_22] 0
interdiction[sink_7,sink_24] 0
interdiction[sink_22,sink_1] 0
interdiction[sink_24,sink_21] 0
interdiction[sink_21,sink_12] 0
interdiction[sink_7,sink_5] 0
interdiction[sink_5,sink_17] 0
interdiction[sink_17,sink_4] 0
interdiction[sink_17,sink_8] 0
interdiction[sink_3,sink_23] 0
interdiction[sink_8,sink_20] 0
interdiction[sink_25,sink_20] 0
interdiction[sink_25,sink_15] 0
interdiction[sink_15,sink_29] 0
interdiction[sink_29,sink_28] 0
interdiction[sink_29,sink_2] 1
interdiction[sink_2,sink_15] 0
interdiction[sink_29,innode_7] 0
interdiction[innode_4,sink_19] 0
interdiction[sink_19,innode_3] 0
interdiction[innode_4,innode_5] 1
interdiction[sink_27,innode_5] 0
interdiction[sink_27,sink_19] 0
interdiction[sink_10,sink_11] 0
interdiction[sink_10,innode_2] 0
interdiction[sink_10,innode_3] 0
interdiction[innode_6,sink_25] 0
interdiction[sink_11,innode_1] 0
interdiction[sink_19,innode_2] 1
interdiction[source_3,innode_4] 0
interdiction[source_2,innode_7] 0
interdiction[sink_3,innode_8] 0
WCcheckFlow[source_1,sink_3] 39
WCcheckFlow[innode_1,sink_16] 1
WCcheckFlow[innode_6,sink_13] 13
WCcheckFlow[sink_13,sink_14] 12
WCcheckFlow[sink_14,sink_10] 11
WCcheckFlow[sink_25,sink_26] 15
WCcheckFlow[sink_26,sink_9] 12
WCcheckFlow[sink_9,sink_18] 11
WCcheckFlow[sink_26,sink_4] 2
WCcheckFlow[sink_4,sink_20] 1
WCcheckFlow[sink_18,sink_6] 10
WCcheckFlow[sink_25,innode_8] -36
WCcheckFlow[sink_6,sink_7] 7
WCcheckFlow[sink_6,sink_22] 2
WCcheckFlow[sink_7,sink_24] 3
WCcheckFlow[sink_22,sink_1] 1
WCcheckFlow[sink_24,sink_21] 2
WCcheckFlow[sink_21,sink_12] 1
WCcheckFlow[sink_7,sink_5] 3
WCcheckFlow[sink_5,sink_17] 2
WCcheckFlow[sink_17,sink_4] 0
WCcheckFlow[sink_17,sink_8] 1
WCcheckFlow[sink_3,sink_23] 1
WCcheckFlow[sink_8,sink_20] 0
WCcheckFlow[sink_25,sink_20] 0
WCcheckFlow[sink_25,sink_15] 6
WCcheckFlow[sink_15,sink_29] 4
WCcheckFlow[sink_29,sink_28] 1
WCcheckFlow[sink_29,sink_2] 0
WCcheckFlow[sink_2,sink_15] -1
WCcheckFlow[sink_29,innode_7] 2
WCcheckFlow[innode_4,sink_19] -2
WCcheckFlow[sink_19,innode_3] -5
WCcheckFlow[innode_4,innode_5] 0
WCcheckFlow[sink_27,innode_5] 1
WCcheckFlow[sink_27,sink_19] -2
WCcheckFlow[sink_10,sink_11] 3
WCcheckFlow[sink_10,innode_2] 1
WCcheckFlow[sink_10,innode_3] 6
WCcheckFlow[innode_6,sink_25] -14
WCcheckFlow[sink_11,innode_1] 2
WCcheckFlow[sink_19,innode_2] 0
WCcheckFlow[source_3,innode_4] -1
WCcheckFlow[source_2,innode_7] -1
WCcheckFlow[sink_3,innode_8] 37
